c generated by the ./complete generator
c n = 4
c average parallel = 0
c max/min cost = 10/5
c max/min capacity = 8/4
c average deficit = 4
c total deficit = 10
c seed = 12345
p min 4 6
a	1	2	0	6	6
a	1	3	0	7	6
a	4	1	0	6	8
a	2	3	0	4	5
a	4	2	0	6	8
a	4	3	0	6	9
n	1	-2
n	2	3
n	3	1
n	4	-2
